mixintcount/benchmarks/random_v2l/5_5_141.smt2
(set-logic QF_LIA)
(set-info :ran/ran2.smt2)
(set-info :smt-lib-version 2.0)
(declare-fun x1 () Int)
(declare-fun x2 () Int)
(declare-fun x3 () Int)
(declare-fun x4 () Int)
(declare-fun x5 () Int)
(assert (<= (+ (* (- 9) x1) (* 0 x2) (* 10 x3) (* 2 x4) (* (- 6) x5) ) 81))
(assert (<= (+ (* 9 x1) (* (- 4) x2) (* 3 x3) (* (- 8) x4) (* 1 x5) ) (- 28)))
(assert (<= (+ (* 4 x1) (* (- 3) x2) (* (- 1) x3) (* 4 x4) (* 8 x5) ) 79))
(assert (<= (+ (* (- 10) x1) (* (- 6) x2) (* (- 3) x3) (* (- 3) x4) (* (- 8) x5) ) (- 63)))
(assert (<= (+ (* (- 3) x1) (* 2 x2) (* 2 x3) (* (- 10) x4) (* (- 5) x5) ) (- 61)))
(assert (<= (+ (* 5 x1) (* (- 6) x2) (* 7 x3) (* 3 x4) (* 6 x5) ) (- 6)))
(assert (<= (+ (* (- 7) x1) (* 2 x2) (* (- 4) x3) (* 6 x4) (* 5 x5) ) (- 118)))
(assert (<= (+ (* (- 10) x1) (* (- 2) x2) (* (- 8) x3) (* (- 3) x4) (* (- 10) x5) ) 3))
(assert (<= (+ (* (- 5) x1) (* (- 10) x2) (* (- 10) x3) (* 2 x4) (* (- 5) x5) ) 14))
(assert (<= (+ (* (- 5) x1) (* 2 x2) (* 2 x3) (* 6 x4) (* 2 x5) ) 117))
(assert (<= (+ (* 1 x1) (* 0 x2) (* 0 x3) (* 0 x4) (* 0 x5) ) 141))
(assert (<= (+ (* (- 1) x1) (* 0 x2) (* 0 x3) (* 0 x4) (* 0 x5) ) 141))
(assert (<= (+ (* 0 x1) (* 1 x2) (* 0 x3) (* 0 x4) (* 0 x5) ) 141))
(assert (<= (+ (* 0 x1) (* (- 1) x2) (* 0 x3) (* 0 x4) (* 0 x5) ) 141))
(assert (<= (+ (* 0 x1) (* 0 x2) (* 1 x3) (* 0 x4) (* 0 x5) ) 141))
(assert (<= (+ (* 0 x1) (* 0 x2) (* (- 1) x3) (* 0 x4) (* 0 x5) ) 141))
(assert (<= (+ (* 0 x1) (* 0 x2) (* 0 x3) (* 1 x4) (* 0 x5) ) 141))
(assert (<= (+ (* 0 x1) (* 0 x2) (* 0 x3) (* (- 1) x4) (* 0 x5) ) 141))
(assert (<= (+ (* 0 x1) (* 0 x2) (* 0 x3) (* 0 x4) (* 1 x5) ) 141))
(assert (<= (+ (* 0 x1) (* 0 x2) (* 0 x3) (* 0 x4) (* (- 1) x5) ) 141))
