mixintcount/benchmarks/random_v2l/5_5_141.in
20 7
#	x1	x2	x3	x4	x5;		0 = Real; 1 = Integer
	1	1	1	1	1
1	-9	0	10	2	-6	81
1	9	-4	3	-8	1	-28
1	4	-3	-1	4	8	79
1	-10	-6	-3	-3	-8	-63
1	-3	2	2	-10	-5	-61
1	5	-6	7	3	6	-6
1	-7	2	-4	6	5	-118
1	-10	-2	-8	-3	-10	3
1	-5	-10	-10	2	-5	14
1	-5	2	2	6	2	117
1	1	0	0	0	0	141
1	-1	0	0	0	0	141
1	0	1	0	0	0	141
1	0	-1	0	0	0	141
1	0	0	1	0	0	141
1	0	0	-1	0	0	141
1	0	0	0	1	0	141
1	0	0	0	-1	0	141
1	0	0	0	0	1	141
1	0	0	0	0	-1	141
